p cnf 7230 17
1017 -1019 0
1022 -1024 0
-853 -1022 1023 0
853 -1024 0
-879 -1017 1018 0
1017 -1021 0
-851 -1017 1020 0
-1023 1024 0
-1018 1019 0
-1020 1021 0
851 -1021 0
879 -1019 0
-885 -1022 1026 0
-1015 1016 0
1015 -1016 0
885 -1026 0
1022 -1026 0
